c description: Random 3-CNF over 14 variables and 59 clauses
c generator: CNFgen (0.9.2)
c copyright: (C) 2012-2022 Massimo Lauria <massimo.lauria@uniroma1.it>
c url: https://massimolauria.net/cnfgen
c command line: cnfgen --output CNF_4.28/14_bit_59_815.cnf randkcnf 3 14 59
c
p cnf 14 59
1 -10 -12 0
-1 -10 -14 0
2 9 11 0
2 7 -8 0
-5 -9 -11 0
-3 -4 14 0
-4 -7 13 0
-2 7 14 0
-9 -10 -14 0
1 11 -12 0
3 -9 -12 0
5 -10 13 0
-1 -8 -11 0
-2 -7 -8 0
1 9 10 0
5 -7 14 0
2 -3 -13 0
7 8 12 0
-5 -9 10 0
-1 -9 13 0
-5 -8 -9 0
-1 3 -11 0
4 -6 9 0
6 11 14 0
-5 -7 14 0
5 8 10 0
4 7 -13 0
1 2 -3 0
-3 12 13 0
5 -6 12 0
1 5 -13 0
-2 -8 -13 0
1 -6 14 0
5 -8 -10 0
7 10 -12 0
3 10 13 0
4 -11 -12 0
7 -8 -11 0
-2 -5 -14 0
7 8 -12 0
2 3 8 0
-7 -12 -13 0
3 5 10 0
4 -6 7 0
7 -11 -13 0
-3 -10 14 0
4 -7 10 0
-8 12 -13 0
3 -6 -7 0
-1 3 -10 0
2 -6 7 0
-7 -9 -12 0
-5 -12 -13 0
1 -5 7 0
-3 -12 13 0
-6 -7 10 0
-7 -9 -11 0
-2 10 -12 0
4 -6 -7 0
